c Random generated cnf formula, satisfiable: false
p cnf 10 50
-10 8 3 0
9 -10 -5 0
-10 3 -5 0
2 6 -4 0
5 -3 -4 0
3 -2 -9 0
5 -1 -9 0
3 6 -1 0
-8 -1 -4 0
-10 -2 6 0
-8 6 1 0
-5 4 -1 0
-5 2 -6 0
10 -6 -5 0
-6 7 -3 0
9 -2 -6 0
2 -9 5 0
-9 8 -7 0
-6 -9 -4 0
2 -7 10 0
7 -4 -2 0
9 3 8 0
5 4 -6 0
10 6 -7 0
4 -7 -6 0
3 10 5 0
-8 -5 -2 0
-9 -3 -8 0
-1 3 -4 0
9 -10 -6 0
6 -7 -5 0
4 9 -3 0
2 9 7 0
3 -9 -10 0
1 8 -7 0
2 10 4 0
5 -7 -9 0
7 -4 -6 0
-4 -5 -9 0
6 3 -8 0
-5 2 4 0
-7 -8 -6 0
-1 -9 2 0
9 5 -7 0
-7 2 -5 0
-10 7 -1 0
-9 -7 10 0
-4 -6 9 0
-3 -9 8 0
-2 5 -9 0
